40
450.0 610.0 
425.0 560.0 
450.0 610.0 
425.0 560.0 
425.0 560.0 
450.0 610.0 
450.0 610.0 
425.0 560.0 
450.0 610.0 
425.0 560.0 
450.0 610.0 
425.0 560.0 
425.0 560.0 
450.0 610.0 
450.0 610.0 
425.0 560.0 
450.0 610.0 
425.0 560.0 
450.0 610.0 
425.0 560.0 
450.0 610.0 
425.0 560.0 
450.0 610.0 
425.0 560.0 
450.0 610.0 
425.0 560.0 
450.0 610.0 
425.0 560.0 
450.0 610.0 
425.0 560.0 
450.0 610.0 
425.0 560.0 
450.0 610.0 
425.0 560.0 
450.0 610.0 
425.0 560.0 
450.0 610.0 
425.0 560.0 
450.0 610.0 
425.0 560.0 

0 11 6 5 4 1 2 3 19 18 17 15 14 16 7 8 9 10 12 13 20 
0 6 5 4 1 2 3 19 18 17 15 14 16 7 8 9 10 11 12 20 
0 11 6 5 4 1 2 3 19 18 17 15 14 16 7 8 9 10 12 13 20 
0 6 5 4 1 2 3 19 18 17 15 14 16 7 8 9 10 11 12 20 
0 6 5 4 1 2 3 19 18 17 15 14 16 7 8 9 10 11 12 20 
0 11 6 5 4 1 2 3 19 18 17 15 14 16 7 8 9 10 12 13 20 
0 11 6 5 4 1 2 3 19 18 17 15 14 16 7 8 9 10 12 13 20 
0 6 5 4 1 2 3 19 18 17 15 14 16 7 8 9 10 11 12 20 
0 11 6 5 4 1 2 3 19 18 17 15 14 16 7 8 9 10 12 13 20 
0 6 5 4 1 2 3 19 18 17 15 14 16 7 8 9 10 11 12 20 
0 11 6 5 4 1 2 3 19 18 17 15 14 16 7 8 9 10 12 13 20 
0 6 5 4 1 2 3 19 18 17 15 14 16 7 8 9 10 11 12 20 
0 6 5 4 1 2 3 19 18 17 15 14 16 7 8 9 10 11 12 20 
0 11 6 5 4 1 2 3 19 18 17 15 14 16 7 8 9 10 12 13 20 
0 11 6 5 4 1 2 3 19 18 17 15 14 16 7 8 9 10 12 13 20 
0 6 5 4 1 2 3 19 18 17 15 14 16 7 8 9 10 11 12 20 
0 11 6 5 4 1 2 3 19 18 17 15 14 16 7 8 9 10 12 13 20 
0 6 5 4 1 2 3 19 18 17 15 14 16 7 8 9 10 11 12 20 
0 11 6 5 4 1 2 3 19 18 17 15 14 16 7 8 9 10 12 13 20 
0 6 5 4 1 2 3 19 18 17 15 14 16 7 8 9 10 11 12 20 
0 11 6 5 4 1 2 3 19 18 17 15 14 16 7 8 9 10 12 13 20 
0 6 5 4 1 2 3 19 18 17 15 14 16 7 8 9 10 11 12 20 
0 11 6 5 4 1 2 3 19 18 17 15 14 16 7 8 9 10 12 13 20 
0 6 5 4 1 2 3 19 18 17 15 14 16 7 8 9 10 11 12 20 
0 11 6 5 4 1 2 3 19 18 17 15 14 16 7 8 9 10 12 13 20 
0 6 5 4 1 2 3 19 18 17 15 14 16 7 8 9 10 11 12 20 
0 11 6 5 4 1 2 3 19 18 17 15 14 16 7 8 9 10 12 13 20 
0 6 5 4 1 2 3 19 18 17 15 14 16 7 8 9 10 11 12 20 
0 11 6 5 4 1 2 3 19 18 17 15 14 16 7 8 9 10 12 13 20 
0 6 5 4 1 2 3 19 18 17 15 14 16 7 8 9 10 11 12 20 
0 11 6 5 4 1 2 3 19 18 17 15 14 16 7 8 9 10 12 13 20 
0 6 5 4 1 2 3 19 18 17 15 14 16 7 8 9 10 11 12 20 
0 11 6 5 4 1 2 3 19 18 17 15 14 16 7 8 9 10 12 13 20 
0 6 5 4 1 2 3 19 18 17 15 14 16 7 8 9 10 11 12 20 
0 11 6 5 4 1 2 3 19 18 17 15 14 16 7 8 9 10 12 13 20 
0 6 5 4 1 2 3 19 18 17 15 14 16 7 8 9 10 11 12 20 
0 11 6 5 4 1 2 3 19 18 17 15 14 16 7 8 9 10 12 13 20 
0 6 5 4 1 2 3 19 18 17 15 14 16 7 8 9 10 11 12 20 
0 11 6 5 4 1 2 3 19 18 17 15 14 16 7 8 9 10 12 13 20 
0 6 5 4 1 2 3 19 18 17 15 14 16 7 8 9 10 11 12 20 
